1543
23 77 8 31 50 54 28 81 80 19 26 91 92 88 89 67 72 7 14 18 60 41 34 17 74 39 87 68 51 9 32 93 84 38 97 63 66 4 57 6 5 45 30 86 29 52 85 73 78 55 36 27 90 1 96 99 75 46 40 49 2 25 48 95 64 47 83 11 37 15 62 59 58 33 82 43 79 94 71 42 21 22 53 65 76 98 12 61 35 56 10 3 44 70 13 24 16 69 20 
